<instance format="XCSP3" type="CSP">
  <variables>
    <var id="x0"> 11 12 </var>
    <var id="x1"> 2 3 5 12 </var>
    <var id="x2"> 2 6 11 12 </var>
    <var id="x3"> 3 11 12 14 </var>
    <var id="x4"> 3 5 14 </var>
    <var id="x5"> 2 3 11 14 </var>
    <var id="x6"> 3 6 12 </var>
    <var id="x7"> 1 3 10 14 </var>
    <var id="x8"> 0 5 14 </var>
    <var id="x9"> 0 7 14 </var>
    <var id="x10"> 0 3 10 14 </var>
    <var id="x11"> 1 3 7 </var>
    <var id="x12"> 1 3 10 14 </var>
    <var id="x13"> 3 5 10 14 </var>
    <var id="x14"> 1 4 7 10..12 </var>
    <var id="x15"> 1 4 7 11 14 </var>
    <var id="x16"> 4 7 10..12 14 </var>
    <var id="x17"> 10..12 14 </var>
    <var id="x18"> 7 10 14 </var>
    <var id="x19"> 1 4 7 12 </var>
    <var id="x20"> 4 10 12 14 </var>
    <var id="x21"> 9 11 12 </var>
    <var id="x22"> 3 14 </var>
    <var id="x23"> 11 12 </var>
    <var id="x24"> 11 12 14 </var>
    <var id="x25"> 3 11..14 </var>
    <var id="x26"> 3 11 14 </var>
    <var id="x27"> 5 9 14 </var>
    <var id="x28"> 1 4 7 10 11 </var>
    <var id="x29"> 1 3 4 7 11 </var>
    <var id="x30"> 1 7 10 11 </var>
    <var id="x31"> 13 </var>
    <var id="x32"> 4 7 10 11 </var>
    <var id="x33"> 1 3 10 11 13 </var>
    <var id="x34"> 3 4 10 </var>
    <var id="x35"> 1 2 4 8 10 </var>
    <var id="x36"> 2 4 7 </var>
    <var id="x37"> 1 2 7 10 </var>
    <var id="x38"> 0 2 8 </var>
    <var id="x39"> 4 7 10 </var>
    <var id="x40"> 7 8 10 </var>
    <var id="x41"> 1 4 8 10 </var>
    <var id="x42"> 2 3 8 10 14 </var>
    <var id="x43"> 2 3 7 9 </var>
    <var id="x44"> 2 7 10 </var>
    <var id="x45"> 2 8 9 14 </var>
    <var id="x46"> 3 10 14 </var>
    <var id="x47"> 2 3 14 </var>
    <var id="x48"> 8..10 14 </var>
    <var id="x49"> 4 5 7 14 </var>
    <var id="x50"> 4 7 9 12 14 </var>
    <var id="x51"> 5 7..9 14 </var>
    <var id="x52"> 4 7 8 12 </var>
    <var id="x53"> 8 14 </var>
    <var id="x54"> 4 5 8 12 14 </var>
    <var id="x55"> 4 5 8 9 14 </var>
    <var id="x56"> 4 7 8 12 </var>
    <var id="x57"> 4 5 7 </var>
    <var id="x58"> 2 4 8 </var>
    <var id="x59"> 2 5 8 13 </var>
    <var id="x60"> 5 7 8 </var>
    <var id="x61"> 4 7 8 12 </var>
    <var id="x62"> 8 13 </var>
    <var id="x63"> 4 11 14 </var>
    <var id="x64"> 2 4 </var>
    <var id="x65"> 4 10 11 14 </var>
    <var id="x66"> 0 4 14 </var>
    <var id="x67"> 0 2 4 11 14 </var>
    <var id="x68"> 8 10 11 14 </var>
    <var id="x69"> 4 8 10 14 </var>
    <var id="x70"> 1 4 8 12 </var>
    <var id="x71"> 1 3 4 8 14 </var>
    <var id="x72"> 3 4 12 </var>
    <var id="x73"> 1 6 12 </var>
    <var id="x74"> 0 8 14 </var>
    <var id="x75"> 0 4 12 14 </var>
    <var id="x76"> 0 1 3 4 14 </var>
    <var id="x77"> 3 4 8 12 14 </var>
    <var id="x78"> 4 9 11 12 </var>
    <var id="x79"> 3 4 11 14 </var>
    <var id="x80"> 3 4 9 12 </var>
    <var id="x81"> 4 6 11 12 14 </var>
    <var as="x3" id="x82"/>
    <var id="x83"> 3 11 14 </var>
    <var id="x84"> 4 9 14 </var>
    <var id="x85"> 9 13 </var>
    <var id="x86"> 4 9 13 </var>
    <var id="x87"> 3 9 10 </var>
    <var id="x88"> 1 3 4 </var>
    <var as="x33" id="x89"/>
    <var id="x90"> 3 4 10 </var>
    <var id="x91"> 1 4 9 10 </var>
    <var id="x92"> 1 8 10 12 </var>
    <var id="x93"> 1 3 5 14 </var>
    <var id="x94"> 1 10 12 </var>
    <var id="x95"> 12 14 </var>
    <var id="x96"> 3 5 8 10 14 </var>
    <var id="x97"> 1 3 14 </var>
    <var id="x98"> 1 5 8 10 14 </var>
    <var id="x99"> 1 4 8 10 14 </var>
    <var id="x100"> 4 7 9 </var>
    <var id="x101"> 4 7 10 14 </var>
    <var id="x102"> 4 7 9 14 </var>
    <var id="x103"> 10 14 </var>
    <var id="x104"> 1 4 14 </var>
    <var id="x105"> 1 4 7 8 </var>
  </variables>
  <constraints>
    <group>
      <allDifferent> %... </allDifferent>
      <args> x0 x1 x2 x3 x4 x5 x6 </args>
      <args> x7 x8 x9 x10 x11 x12 x13 </args>
      <args> x14 x15 x16 x17 x18 x19 x20 </args>
      <args> x21 x22 x23 x24 x25 x26 x27 </args>
      <args> x28 x29 x30 x31 x32 x33 x34 </args>
      <args> x35 x36 x37 x38 x39 x40 x41 </args>
      <args> x42 x43 x44 x45 x46 x47 x48 </args>
      <args> x49 x50 x51 x52 x53 x54 x55 </args>
      <args> x56 x57 x58 x59 x60 x61 x62 </args>
      <args> x63 x64 x65 x66 x67 x68 x69 </args>
      <args> x70 x71 x72 x73 x74 x75 x76 x77 </args>
      <args> x78 x79 x80 x81 x82 x83 x84 </args>
      <args> x85 x86 x87 x88 x89 x90 x91 </args>
      <args> x92 x93 x94 x95 x96 x97 x98 </args>
      <args> x99 x100 x101 x102 x103 x104 x105 </args>
      <args> x0 x14 x21 x28 x56 x70 x78 x92 </args>
      <args> x15 x29 x49 x57 x63 x79 x93 </args>
      <args> x7 x22 x35 x42 x58 x71 x99 </args>
      <args> x1 x36 x43 x64 x72 x80 x100 </args>
      <args> x2 x23 x30 x37 x44 x73 x94 </args>
      <args> x8 x31 x38 x45 x59 x74 x85 </args>
      <args> x16 x24 x32 x39 x65 x81 x101 </args>
      <args> x9 x50 x66 x75 x86 x95 x102 </args>
      <args> x3 x10 x17 x25 x46 x82 x103 </args>
      <args> x4 x18 x40 x51 x60 x87 x96 </args>
      <args> x5 x26 x47 x67 x76 x97 x104 </args>
      <args> x6 x11 x19 x52 x61 x88 x105 </args>
      <args> x12 x33 x53 x62 x68 x83 x89 </args>
      <args> x13 x20 x34 x54 x69 x77 x90 </args>
      <args> x27 x41 x48 x55 x84 x91 x98 </args>
    </group>
  </constraints>
</instance>

